c description: There is a graph of 6 vertices with a 3-clique and a 6-coloring
c generator: CNFgen (0.9.0)
c copyright: (C) 2012-2020 Massimo Lauria <massimo.lauria@uniroma1.it>
c url: https://massimolauria.net/cnfgen
c
p cnf 69 342
-16 -17 0
-16 -18 0
-16 -19 0
-16 -20 0
-16 -21 0
-17 -18 0
-17 -19 0
-17 -20 0
-17 -21 0
-18 -19 0
-18 -20 0
-18 -21 0
-19 -20 0
-19 -21 0
-20 -21 0
16 17 18 19 20 21 0
-22 -23 0
-22 -24 0
-22 -25 0
-22 -26 0
-22 -27 0
-23 -24 0
-23 -25 0
-23 -26 0
-23 -27 0
-24 -25 0
-24 -26 0
-24 -27 0
-25 -26 0
-25 -27 0
-26 -27 0
22 23 24 25 26 27 0
-28 -29 0
-28 -30 0
-28 -31 0
-28 -32 0
-28 -33 0
-29 -30 0
-29 -31 0
-29 -32 0
-29 -33 0
-30 -31 0
-30 -32 0
-30 -33 0
-31 -32 0
-31 -33 0
-32 -33 0
28 29 30 31 32 33 0
-16 -22 0
-16 -28 0
-22 -28 0
-17 -23 0
-17 -29 0
-23 -29 0
-18 -24 0
-18 -30 0
-24 -30 0
-19 -25 0
-19 -31 0
-25 -31 0
-20 -26 0
-20 -32 0
-26 -32 0
-21 -27 0
-21 -33 0
-27 -33 0
1 -16 -23 0
1 -16 -29 0
1 -22 -17 0
1 -22 -29 0
1 -28 -17 0
1 -28 -23 0
2 -16 -24 0
2 -16 -30 0
2 -22 -18 0
2 -22 -30 0
2 -28 -18 0
2 -28 -24 0
3 -16 -25 0
3 -16 -31 0
3 -22 -19 0
3 -22 -31 0
3 -28 -19 0
3 -28 -25 0
4 -16 -26 0
4 -16 -32 0
4 -22 -20 0
4 -22 -32 0
4 -28 -20 0
4 -28 -26 0
5 -16 -27 0
5 -16 -33 0
5 -22 -21 0
5 -22 -33 0
5 -28 -21 0
5 -28 -27 0
6 -17 -24 0
6 -17 -30 0
6 -23 -18 0
6 -23 -30 0
6 -29 -18 0
6 -29 -24 0
7 -17 -25 0
7 -17 -31 0
7 -23 -19 0
7 -23 -31 0
7 -29 -19 0
7 -29 -25 0
8 -17 -26 0
8 -17 -32 0
8 -23 -20 0
8 -23 -32 0
8 -29 -20 0
8 -29 -26 0
9 -17 -27 0
9 -17 -33 0
9 -23 -21 0
9 -23 -33 0
9 -29 -21 0
9 -29 -27 0
10 -18 -25 0
10 -18 -31 0
10 -24 -19 0
10 -24 -31 0
10 -30 -19 0
10 -30 -25 0
11 -18 -26 0
11 -18 -32 0
11 -24 -20 0
11 -24 -32 0
11 -30 -20 0
11 -30 -26 0
12 -18 -27 0
12 -18 -33 0
12 -24 -21 0
12 -24 -33 0
12 -30 -21 0
12 -30 -27 0
13 -19 -26 0
13 -19 -32 0
13 -25 -20 0
13 -25 -32 0
13 -31 -20 0
13 -31 -26 0
14 -19 -27 0
14 -19 -33 0
14 -25 -21 0
14 -25 -33 0
14 -31 -21 0
14 -31 -27 0
15 -20 -27 0
15 -20 -33 0
15 -26 -21 0
15 -26 -33 0
15 -32 -21 0
15 -32 -27 0
-34 -35 0
-34 -36 0
-34 -37 0
-34 -38 0
-34 -39 0
-35 -36 0
-35 -37 0
-35 -38 0
-35 -39 0
-36 -37 0
-36 -38 0
-36 -39 0
-37 -38 0
-37 -39 0
-38 -39 0
34 35 36 37 38 39 0
-40 -41 0
-40 -42 0
-40 -43 0
-40 -44 0
-40 -45 0
-41 -42 0
-41 -43 0
-41 -44 0
-41 -45 0
-42 -43 0
-42 -44 0
-42 -45 0
-43 -44 0
-43 -45 0
-44 -45 0
40 41 42 43 44 45 0
-46 -47 0
-46 -48 0
-46 -49 0
-46 -50 0
-46 -51 0
-47 -48 0
-47 -49 0
-47 -50 0
-47 -51 0
-48 -49 0
-48 -50 0
-48 -51 0
-49 -50 0
-49 -51 0
-50 -51 0
46 47 48 49 50 51 0
-52 -53 0
-52 -54 0
-52 -55 0
-52 -56 0
-52 -57 0
-53 -54 0
-53 -55 0
-53 -56 0
-53 -57 0
-54 -55 0
-54 -56 0
-54 -57 0
-55 -56 0
-55 -57 0
-56 -57 0
52 53 54 55 56 57 0
-58 -59 0
-58 -60 0
-58 -61 0
-58 -62 0
-58 -63 0
-59 -60 0
-59 -61 0
-59 -62 0
-59 -63 0
-60 -61 0
-60 -62 0
-60 -63 0
-61 -62 0
-61 -63 0
-62 -63 0
58 59 60 61 62 63 0
-64 -65 0
-64 -66 0
-64 -67 0
-64 -68 0
-64 -69 0
-65 -66 0
-65 -67 0
-65 -68 0
-65 -69 0
-66 -67 0
-66 -68 0
-66 -69 0
-67 -68 0
-67 -69 0
-68 -69 0
64 65 66 67 68 69 0
-1 -34 -40 0
-1 -35 -41 0
-1 -36 -42 0
-1 -37 -43 0
-1 -38 -44 0
-1 -39 -45 0
-2 -34 -46 0
-2 -35 -47 0
-2 -36 -48 0
-2 -37 -49 0
-2 -38 -50 0
-2 -39 -51 0
-3 -34 -52 0
-3 -35 -53 0
-3 -36 -54 0
-3 -37 -55 0
-3 -38 -56 0
-3 -39 -57 0
-4 -34 -58 0
-4 -35 -59 0
-4 -36 -60 0
-4 -37 -61 0
-4 -38 -62 0
-4 -39 -63 0
-5 -34 -64 0
-5 -35 -65 0
-5 -36 -66 0
-5 -37 -67 0
-5 -38 -68 0
-5 -39 -69 0
-6 -40 -46 0
-6 -41 -47 0
-6 -42 -48 0
-6 -43 -49 0
-6 -44 -50 0
-6 -45 -51 0
-7 -40 -52 0
-7 -41 -53 0
-7 -42 -54 0
-7 -43 -55 0
-7 -44 -56 0
-7 -45 -57 0
-8 -40 -58 0
-8 -41 -59 0
-8 -42 -60 0
-8 -43 -61 0
-8 -44 -62 0
-8 -45 -63 0
-9 -40 -64 0
-9 -41 -65 0
-9 -42 -66 0
-9 -43 -67 0
-9 -44 -68 0
-9 -45 -69 0
-10 -46 -52 0
-10 -47 -53 0
-10 -48 -54 0
-10 -49 -55 0
-10 -50 -56 0
-10 -51 -57 0
-11 -46 -58 0
-11 -47 -59 0
-11 -48 -60 0
-11 -49 -61 0
-11 -50 -62 0
-11 -51 -63 0
-12 -46 -64 0
-12 -47 -65 0
-12 -48 -66 0
-12 -49 -67 0
-12 -50 -68 0
-12 -51 -69 0
-13 -52 -58 0
-13 -53 -59 0
-13 -54 -60 0
-13 -55 -61 0
-13 -56 -62 0
-13 -57 -63 0
-14 -52 -64 0
-14 -53 -65 0
-14 -54 -66 0
-14 -55 -67 0
-14 -56 -68 0
-14 -57 -69 0
-15 -58 -64 0
-15 -59 -65 0
-15 -60 -66 0
-15 -61 -67 0
-15 -62 -68 0
-15 -63 -69 0